2488307
0	6	35813
6	1	108023
1	2	14476
2	16	20583
16	12	27808
12	8	45505
8	11	50022
11	10	123742
10	19	34793
19	5	207524
5	4	255155
4	17	90145
17	13	103707
13	7	61570
7	14	67784
14	18	105167
18	9	246240
9	15	21151
15	3	223221
3	0	645878
